%nprocshared=4
%chk=C:\Users\Lucas\Desktop\Transmission_Calculation_Software\opt\molecule.chk
# opt b3lyp/6-31g(d,p) geom=connectivity

Title Card Required

0 1
 C                 -1.80261805   -1.26005933    0.00068200
 C                 -0.40745805   -1.26005933    0.00068200
 C                  0.29007995   -0.05230833    0.00068200
 C                 -0.40757405    1.15620067   -0.00051700
 C                 -1.80239905    1.15612267   -0.00099600
 C                 -2.50000005   -0.05208333    0.00000000
 H                 -2.35237705   -2.21237633    0.00113200
 H                  0.14204995   -2.21257233    0.00199700
 H                  0.14262595    2.10834367   -0.00057600
 H                 -2.35252105    2.10840367   -0.00194900
 S                 -4.28000000   -0.05178710   -0.00029138
 H                 -4.71789881   -0.05425225    1.23434969
 S                  2.07007965   -0.05217884    0.00170823
 H                  2.50807863   -0.05398295   -1.23289845

 1 2 1.5 6 1.5 7 1.0
 2 3 1.5 8 1.0
 3 4 1.5 13 1.0
 4 5 1.5 9 1.0
 5 6 1.5 10 1.0
 6 11 1.0
 7
 8
 9
 10
 11 12 1.0
 12
 13 14 1.0
 14

